c instance by G2
c solution = 0000000010111110000111101
c Known solution cost is 1335 
p cnf 25 30
w 77 12 93 32 95 7 46 84 76 9 94 83 72 73 24 18 28 21 59 52 52 78 22 93 35
20 -21 -12 0
-2 -23 6 0
-14 -5 7 0
-21 19 -8 0
-19 -22 -2 0
7 -16 17 0
-7 5 4 0
-14 -9 -17 0
12 -11 -13 0
3 -22 13 0
-14 -12 25 0
4 23 10 0
3 -18 16 0
-23 -17 18 0
-12 -19 6 0
15 -14 5 0
-12 -22 14 0
22 16 -15 0
-10 3 -21 0
-24 -7 23 0
18 -11 -3 0
-6 -14 1 0
17 -9 21 0
-20 4 -1 0
-24 1 -20 0
-4 -20 -15 0
10 11 4 0
-13 11 -22 0
24 -25 9 0
-14 -18 -13 0
